NAME        output2_2
ROWS
 N  obj
 L  cons0
 L  cons1
 L  cons2
 L  cons3
 L  cons4
 L  cons5
COLUMNS
    x0        obj       2.1
    x0        cons0     1
    x1        obj       1000
    x1        cons0     1
    x2        obj       2.2
    x2        cons1     1
    x3        obj       1000
    x3        cons1     1
    x4        obj       2.3
    x4        cons2     1
    x5        obj       1000
    x5        cons2     1
    x6        obj       1.1
    x6        cons3     1
    x7        obj       1.2
    x7        cons4     1
    x8        obj       1.3
    x8        cons5     1
RHS
    RHS_V     cons0     21.1
    RHS_V     cons1     22.2
    RHS_V     cons2     23.3
    RHS_V     cons3     11.1
    RHS_V     cons4     12.2
    RHS_V     cons5     13.3
BOUNDS
 UP BOUND     x0        21.1
 UP BOUND     x2        22.2
 UP BOUND     x4        23.3
 UP BOUND     x6        11.1
 UP BOUND     x7        12.2
 UP BOUND     x8        13.3
ENDATA
